************************************************************************
file with basedata            : mm29_.bas
initial value random generator: 1758219923
************************************************************************
projects                      :  1
jobs (incl. supersource/sink ):  12
horizon                       :  73
RESOURCES
  - renewable                 :  2   R
  - nonrenewable              :  2   N
  - doubly constrained        :  0   D
************************************************************************
PROJECT INFORMATION:
pronr.  #jobs rel.date duedate tardcost  MPM-Time
    1     10      0       17        4       17
************************************************************************
PRECEDENCE RELATIONS:
jobnr.    #modes  #successors   successors
   0        1          3           1   2   3
   1        3          3           5   7   8
   2        3          3           5   6  10
   3        3          2           4   6
   4        3          1           8
   5        3          1           9
   6        3          1           7
   7        3          1           9
   8        3          1          11
   9        3          1          11
  10        3          1          11
  11        1          0        
************************************************************************
REQUESTS/DURATIONS:
jobnr. mode duration  R 1  R 2  R 3  R 4  E(W 1)  E(W 2)
------------------------------------------------------------------------
  0      1     0       0    0    0    0     0       0
  1      1     3       7    0    6    4    21      30
  2      1     6       0    6   10    7    36      102
  3      1     2       6    0   10    4    12      28
  4      1     5       0    4    8    8    20      80
  5      1     1       0    8    5    9     8      14
  6      1     2       0    6    2    8    12      20
  7      1     4       0    9    4    3    36      28
  8      1     2       0    2    8    7     4      30
  9      1     5       4    0    5   10    20      75
 10      1     2       7    0    7   10    14      34
 11      1     0       0    0    0    0     0       0
************************************************************************
RESOURCEAVAILABILITIES:
  R 1  R 2
   53   101
************************************************************************
RESOURCE LIMITS:
jobnr.  l(R 1)  u(R 1)  l(R 2)  u(R 2)
------------------------------------------------------------------------
  0        0       0       0       0
  1        4       7       5      10
  2        3       6       9      17
  3        3       6       7      14
  4        2       4       8      16
  5        4       8       8      14
  6        3       6       5      10
  7        5       9       4       7
  8        1       2       8      15
  9        2       4       8      15
 10        4       7       9      17
 11        0       0       0       0
************************************************************************
SCENARIOS:
------------------------------------------------------------------------
RESOURCE k = 1
s = 1: (0, 21, 28, 7, 11, 6, 10, 37, 4, 21, 12, 0)
s = 2: (0, 25, 45, 12, 17, 9, 12, 31, 6, 17, 10, 0)
s = 3: (0, 22, 50, 10, 20, 8, 15, 32, 5, 23, 21, 0)
s = 4: (0, 27, 48, 11, 21, 9, 13, 22, 7, 18, 15, 0)
s = 5: (0, 20, 40, 17, 27, 7, 18, 39, 6, 19, 14, 0)
s = 6: (0, 13, 40, 11, 19, 8, 18, 36, 4, 13, 15, 0)
s = 7: (0, 30, 40, 22, 12, 6, 14, 23, 5, 16, 9, 0)
s = 8: (0, 22, 36, 13, 37, 10, 11, 54, 3, 14, 29, 0)
s = 9: (0, 21, 40, 14, 18, 8, 11, 39, 4, 21, 20, 0)
s = 10: (0, 31, 51, 7, 18, 8, 10, 22, 3, 15, 11, 0)
s = 11: (0, 17, 46, 16, 18, 7, 12, 25, 4, 35, 11, 0)
s = 12: (0, 20, 54, 15, 22, 12, 12, 34, 5, 18, 15, 0)
s = 13: (0, 27, 38, 9, 14, 12, 10, 42, 3, 30, 10, 0)
s = 14: (0, 21, 41, 10, 17, 7, 9, 39, 5, 15, 9, 0)
s = 15: (0, 16, 37, 8, 16, 14, 12, 34, 7, 17, 11, 0)
s = 16: (0, 13, 43, 14, 15, 9, 16, 38, 4, 11, 18, 0)
s = 17: (0, 19, 74, 13, 23, 6, 13, 26, 3, 28, 11, 0)
s = 18: (0, 21, 22, 7, 22, 11, 17, 59, 6, 17, 11, 0)
s = 19: (0, 13, 21, 12, 25, 7, 9, 35, 6, 27, 21, 0)
s = 20: (0, 17, 64, 10, 21, 6, 13, 27, 3, 15, 15, 0)
s = 21: (0, 16, 31, 11, 25, 8, 19, 51, 5, 33, 14, 0)
s = 22: (0, 13, 27, 15, 25, 6, 15, 41, 4, 14, 13, 0)
s = 23: (0, 16, 48, 11, 17, 5, 12, 34, 4, 17, 14, 0)
s = 24: (0, 14, 31, 20, 30, 6, 10, 56, 4, 20, 17, 0)
s = 25: (0, 21, 41, 13, 14, 10, 13, 25, 6, 19, 16, 0)
s = 26: (0, 31, 47, 10, 20, 6, 10, 39, 4, 19, 19, 0)
s = 27: (0, 35, 36, 8, 20, 9, 11, 24, 5, 25, 14, 0)
s = 28: (0, 34, 51, 10, 24, 7, 12, 26, 3, 27, 18, 0)
s = 29: (0, 18, 54, 16, 14, 9, 13, 24, 4, 14, 9, 0)
s = 30: (0, 22, 47, 13, 18, 12, 12, 29, 4, 28, 11, 0)
s = 31: (0, 26, 38, 19, 21, 11, 18, 30, 6, 19, 16, 0)
s = 32: (0, 25, 31, 12, 20, 5, 14, 57, 5, 17, 13, 0)
s = 33: (0, 22, 64, 13, 18, 8, 15, 45, 6, 13, 21, 0)
s = 34: (0, 12, 27, 13, 17, 15, 11, 45, 4, 16, 12, 0)
s = 35: (0, 14, 34, 13, 19, 8, 12, 34, 6, 15, 17, 0)
s = 36: (0, 19, 46, 16, 13, 8, 9, 35, 6, 25, 13, 0)
s = 37: (0, 19, 31, 10, 20, 7, 13, 48, 5, 14, 14, 0)
s = 38: (0, 17, 37, 11, 29, 7, 13, 41, 4, 34, 11, 0)
s = 39: (0, 28, 45, 23, 22, 7, 16, 29, 3, 19, 25, 0)
s = 40: (0, 21, 35, 10, 23, 10, 16, 54, 3, 22, 8, 0)
s = 41: (0, 19, 25, 11, 23, 7, 14, 43, 4, 19, 12, 0)
s = 42: (0, 12, 38, 18, 25, 10, 14, 55, 4, 16, 15, 0)
s = 43: (0, 21, 50, 13, 27, 6, 17, 21, 4, 29, 11, 0)
s = 44: (0, 26, 32, 14, 19, 10, 13, 23, 4, 19, 10, 0)
s = 45: (0, 14, 43, 12, 16, 6, 11, 24, 5, 20, 9, 0)
s = 46: (0, 14, 28, 9, 25, 12, 15, 33, 5, 23, 11, 0)
s = 47: (0, 16, 32, 11, 19, 9, 12, 44, 4, 20, 20, 0)
s = 48: (0, 22, 68, 15, 14, 7, 19, 40, 4, 32, 14, 0)
s = 49: (0, 17, 40, 8, 13, 8, 10, 31, 5, 26, 19, 0)
s = 50: (0, 16, 49, 11, 16, 12, 12, 30, 5, 13, 10, 0)
s = 51: (0, 23, 31, 13, 23, 9, 23, 56, 4, 16, 11, 0)
s = 52: (0, 28, 24, 11, 17, 7, 13, 42, 6, 20, 15, 0)
s = 53: (0, 23, 25, 14, 17, 7, 17, 41, 4, 24, 21, 0)
s = 54: (0, 29, 35, 9, 19, 7, 11, 33, 5, 16, 13, 0)
s = 55: (0, 18, 37, 14, 26, 12, 21, 27, 5, 23, 8, 0)
s = 56: (0, 19, 27, 11, 20, 13, 11, 38, 6, 24, 13, 0)
s = 57: (0, 13, 29, 22, 17, 9, 17, 26, 4, 18, 12, 0)
s = 58: (0, 17, 50, 11, 33, 12, 16, 24, 4, 21, 12, 0)
s = 59: (0, 34, 31, 19, 22, 12, 16, 31, 3, 17, 10, 0)
s = 60: (0, 19, 53, 10, 13, 7, 14, 30, 4, 21, 10, 0)
s = 61: (0, 20, 34, 18, 15, 10, 7, 29, 3, 23, 22, 0)
s = 62: (0, 21, 31, 12, 14, 10, 12, 28, 6, 16, 13, 0)
s = 63: (0, 22, 46, 11, 42, 9, 9, 37, 6, 16, 13, 0)
s = 64: (0, 23, 37, 11, 18, 6, 17, 35, 6, 14, 19, 0)
s = 65: (0, 25, 46, 13, 25, 6, 15, 55, 5, 13, 10, 0)
s = 66: (0, 23, 35, 11, 19, 7, 9, 29, 4, 23, 15, 0)
s = 67: (0, 23, 43, 9, 20, 8, 13, 25, 4, 25, 8, 0)
s = 68: (0, 13, 43, 17, 26, 6, 15, 47, 3, 31, 23, 0)
s = 69: (0, 16, 36, 17, 29, 10, 18, 42, 3, 21, 17, 0)
s = 70: (0, 20, 44, 11, 31, 11, 18, 34, 4, 15, 15, 0)
s = 71: (0, 13, 38, 10, 17, 7, 9, 23, 3, 28, 21, 0)
s = 72: (0, 15, 36, 12, 13, 8, 16, 49, 5, 18, 19, 0)
s = 73: (0, 23, 38, 13, 16, 10, 16, 30, 5, 17, 27, 0)
s = 74: (0, 17, 30, 7, 14, 10, 12, 35, 4, 21, 19, 0)
s = 75: (0, 14, 47, 7, 13, 12, 13, 36, 3, 13, 15, 0)
s = 76: (0, 22, 22, 8, 14, 11, 9, 29, 5, 21, 11, 0)
s = 77: (0, 18, 47, 13, 24, 10, 8, 37, 4, 28, 9, 0)
s = 78: (0, 21, 49, 16, 19, 8, 9, 43, 5, 18, 12, 0)
s = 79: (0, 13, 34, 11, 19, 5, 15, 23, 6, 14, 11, 0)
s = 80: (0, 19, 35, 14, 22, 10, 16, 27, 6, 16, 14, 0)
s = 81: (0, 18, 34, 11, 37, 7, 12, 37, 5, 14, 13, 0)
s = 82: (0, 28, 46, 8, 19, 9, 16, 38, 4, 26, 15, 0)
s = 83: (0, 23, 50, 15, 25, 6, 20, 24, 3, 19, 14, 0)
s = 84: (0, 26, 52, 24, 16, 12, 11, 37, 5, 28, 10, 0)
s = 85: (0, 18, 30, 8, 18, 13, 14, 37, 6, 18, 11, 0)
s = 86: (0, 32, 25, 10, 21, 8, 14, 30, 5, 21, 13, 0)
s = 87: (0, 28, 33, 9, 19, 6, 11, 35, 4, 20, 20, 0)
s = 88: (0, 20, 38, 12, 13, 10, 15, 33, 4, 13, 10, 0)
s = 89: (0, 23, 25, 12, 13, 9, 10, 32, 6, 17, 11, 0)
s = 90: (0, 25, 30, 12, 27, 9, 14, 28, 6, 14, 9, 0)
s = 91: (0, 14, 32, 13, 23, 11, 18, 49, 5, 15, 10, 0)
s = 92: (0, 17, 26, 8, 29, 9, 13, 34, 5, 21, 10, 0)
s = 93: (0, 15, 20, 16, 14, 7, 10, 34, 4, 24, 19, 0)
s = 94: (0, 14, 24, 17, 11, 9, 10, 27, 3, 18, 15, 0)
s = 95: (0, 29, 29, 10, 31, 8, 16, 46, 4, 15, 16, 0)
s = 96: (0, 30, 44, 8, 30, 8, 12, 54, 3, 26, 13, 0)
s = 97: (0, 18, 31, 12, 31, 8, 16, 53, 4, 27, 16, 0)
s = 98: (0, 21, 39, 16, 17, 5, 17, 29, 4, 26, 16, 0)
s = 99: (0, 23, 19, 9, 12, 7, 11, 24, 4, 25, 11, 0)
s = 100: (0, 29, 22, 10, 25, 11, 22, 25, 6, 23, 13, 0)
s = 101: (0, 19, 35, 10, 13, 6, 14, 41, 3, 21, 10, 0)
s = 102: (0, 21, 32, 8, 17, 10, 11, 31, 5, 15, 15, 0)
s = 103: (0, 30, 51, 11, 16, 7, 12, 42, 4, 21, 25, 0)
s = 104: (0, 18, 50, 17, 16, 9, 11, 28, 6, 18, 23, 0)
s = 105: (0, 31, 48, 14, 20, 7, 10, 21, 7, 19, 14, 0)
s = 106: (0, 24, 25, 10, 34, 7, 9, 43, 4, 17, 10, 0)
s = 107: (0, 22, 40, 7, 16, 9, 10, 29, 3, 14, 24, 0)
s = 108: (0, 26, 21, 14, 17, 5, 7, 35, 5, 13, 24, 0)
s = 109: (0, 21, 50, 12, 18, 7, 20, 41, 6, 18, 11, 0)
s = 110: (0, 16, 36, 12, 27, 8, 12, 39, 5, 16, 15, 0)
s = 111: (0, 12, 54, 17, 25, 11, 15, 31, 4, 12, 9, 0)
s = 112: (0, 17, 30, 13, 16, 9, 8, 24, 4, 12, 11, 0)
s = 113: (0, 28, 28, 14, 26, 8, 13, 50, 3, 16, 16, 0)
s = 114: (0, 16, 19, 15, 22, 13, 11, 59, 5, 22, 11, 0)
s = 115: (0, 14, 23, 20, 25, 5, 15, 23, 6, 14, 8, 0)
s = 116: (0, 14, 35, 15, 24, 5, 9, 28, 6, 28, 15, 0)
s = 117: (0, 17, 36, 15, 11, 7, 8, 23, 3, 21, 14, 0)
s = 118: (0, 27, 45, 13, 16, 10, 7, 28, 7, 30, 12, 0)
s = 119: (0, 25, 20, 11, 19, 11, 12, 24, 5, 24, 15, 0)
s = 120: (0, 23, 25, 7, 22, 7, 9, 33, 5, 25, 9, 0)
s = 121: (0, 23, 29, 7, 23, 8, 8, 52, 5, 28, 15, 0)
s = 122: (0, 39, 30, 13, 23, 11, 10, 25, 3, 21, 17, 0)
s = 123: (0, 21, 22, 16, 23, 12, 17, 47, 3, 16, 13, 0)
s = 124: (0, 12, 55, 12, 12, 8, 11, 28, 3, 14, 15, 0)
s = 125: (0, 27, 32, 18, 27, 12, 11, 28, 4, 22, 11, 0)
s = 126: (0, 24, 36, 9, 27, 12, 10, 25, 7, 25, 21, 0)
s = 127: (0, 13, 38, 13, 29, 10, 15, 24, 4, 18, 27, 0)
s = 128: (0, 29, 29, 13, 18, 10, 16, 38, 5, 18, 19, 0)
s = 129: (0, 30, 62, 19, 14, 5, 11, 29, 5, 17, 14, 0)
s = 130: (0, 26, 48, 12, 25, 6, 14, 38, 3, 20, 16, 0)
s = 131: (0, 25, 71, 9, 17, 15, 14, 23, 5, 27, 15, 0)
s = 132: (0, 21, 29, 14, 13, 8, 14, 57, 4, 24, 9, 0)
s = 133: (0, 27, 37, 13, 23, 10, 14, 48, 3, 25, 14, 0)
s = 134: (0, 15, 46, 13, 24, 8, 11, 66, 3, 13, 17, 0)
s = 135: (0, 12, 47, 17, 18, 6, 13, 29, 5, 20, 16, 0)
s = 136: (0, 15, 35, 10, 19, 6, 16, 25, 6, 13, 10, 0)
s = 137: (0, 24, 42, 7, 20, 6, 12, 51, 3, 18, 21, 0)
s = 138: (0, 32, 22, 19, 28, 8, 12, 36, 4, 29, 13, 0)
s = 139: (0, 20, 35, 13, 13, 7, 7, 38, 5, 15, 13, 0)
s = 140: (0, 23, 36, 9, 11, 7, 10, 52, 6, 18, 16, 0)
s = 141: (0, 26, 39, 14, 21, 6, 9, 46, 4, 14, 12, 0)
s = 142: (0, 13, 22, 10, 23, 8, 9, 29, 5, 17, 17, 0)
s = 143: (0, 28, 35, 12, 14, 9, 7, 71, 4, 20, 16, 0)
s = 144: (0, 20, 20, 16, 21, 11, 9, 48, 3, 14, 11, 0)
s = 145: (0, 21, 42, 11, 31, 8, 12, 47, 4, 20, 15, 0)
s = 146: (0, 14, 31, 8, 32, 10, 11, 25, 6, 19, 12, 0)
s = 147: (0, 34, 38, 13, 19, 14, 20, 29, 4, 19, 11, 0)
s = 148: (0, 13, 35, 21, 15, 11, 14, 54, 6, 17, 14, 0)
s = 149: (0, 21, 39, 9, 15, 8, 16, 31, 4, 26, 14, 0)
s = 150: (0, 36, 37, 16, 21, 8, 9, 47, 7, 15, 12, 0)
s = 151: (0, 26, 66, 12, 15, 5, 14, 38, 3, 22, 22, 0)
s = 152: (0, 23, 36, 8, 32, 11, 19, 51, 6, 23, 12, 0)
s = 153: (0, 14, 23, 16, 24, 7, 10, 30, 5, 31, 15, 0)
s = 154: (0, 20, 32, 8, 15, 5, 15, 39, 4, 12, 18, 0)
s = 155: (0, 18, 23, 16, 35, 12, 17, 40, 4, 17, 12, 0)
s = 156: (0, 19, 46, 7, 18, 8, 14, 24, 6, 23, 12, 0)
s = 157: (0, 16, 21, 13, 13, 5, 9, 26, 5, 24, 17, 0)
s = 158: (0, 27, 19, 11, 38, 9, 17, 40, 4, 14, 16, 0)
s = 159: (0, 13, 20, 14, 20, 8, 18, 27, 4, 26, 16, 0)
s = 160: (0, 23, 25, 7, 16, 9, 17, 56, 5, 21, 9, 0)
s = 161: (0, 23, 29, 8, 29, 5, 11, 36, 3, 16, 12, 0)
s = 162: (0, 24, 58, 12, 24, 8, 8, 43, 3, 19, 16, 0)
s = 163: (0, 23, 27, 16, 16, 7, 11, 52, 4, 15, 11, 0)
s = 164: (0, 19, 39, 11, 22, 6, 11, 42, 5, 29, 19, 0)
s = 165: (0, 17, 30, 13, 23, 8, 11, 32, 5, 13, 13, 0)
s = 166: (0, 15, 42, 12, 15, 14, 10, 30, 6, 27, 13, 0)
s = 167: (0, 26, 48, 12, 23, 7, 9, 29, 4, 18, 18, 0)
s = 168: (0, 27, 54, 16, 17, 8, 15, 43, 7, 14, 22, 0)
s = 169: (0, 16, 28, 10, 26, 7, 18, 35, 8, 30, 15, 0)
s = 170: (0, 27, 45, 15, 33, 5, 18, 26, 3, 28, 24, 0)
s = 171: (0, 27, 26, 10, 15, 14, 17, 37, 4, 35, 13, 0)
s = 172: (0, 17, 52, 22, 21, 7, 8, 25, 8, 22, 11, 0)
s = 173: (0, 15, 41, 9, 21, 5, 11, 37, 5, 19, 25, 0)
s = 174: (0, 24, 52, 12, 14, 9, 13, 27, 6, 16, 16, 0)
s = 175: (0, 18, 25, 15, 24, 6, 12, 48, 5, 14, 22, 0)
s = 176: (0, 28, 47, 14, 21, 9, 12, 38, 4, 21, 15, 0)
s = 177: (0, 20, 40, 10, 19, 9, 10, 31, 4, 18, 14, 0)
s = 178: (0, 27, 60, 12, 29, 13, 13, 30, 6, 29, 12, 0)
s = 179: (0, 23, 36, 12, 26, 8, 10, 30, 5, 13, 14, 0)
s = 180: (0, 20, 43, 10, 32, 13, 9, 40, 5, 21, 11, 0)
s = 181: (0, 14, 21, 12, 12, 16, 7, 21, 5, 29, 16, 0)
s = 182: (0, 33, 29, 19, 14, 7, 15, 48, 4, 19, 18, 0)
s = 183: (0, 16, 23, 11, 29, 5, 14, 29, 6, 23, 10, 0)
s = 184: (0, 26, 48, 11, 24, 9, 20, 45, 4, 20, 18, 0)
s = 185: (0, 21, 25, 16, 14, 5, 13, 27, 3, 24, 16, 0)
s = 186: (0, 16, 69, 8, 37, 7, 13, 26, 3, 20, 13, 0)
s = 187: (0, 24, 19, 8, 24, 12, 10, 32, 5, 20, 12, 0)
s = 188: (0, 27, 37, 13, 23, 8, 13, 28, 4, 25, 13, 0)
s = 189: (0, 28, 25, 13, 15, 10, 10, 51, 4, 14, 9, 0)
s = 190: (0, 19, 45, 10, 18, 12, 14, 26, 4, 17, 17, 0)
s = 191: (0, 19, 39, 14, 15, 6, 14, 25, 6, 33, 15, 0)
s = 192: (0, 18, 25, 9, 20, 11, 10, 27, 5, 16, 9, 0)
s = 193: (0, 18, 22, 12, 23, 13, 19, 26, 3, 21, 14, 0)
s = 194: (0, 15, 35, 21, 13, 8, 7, 25, 6, 22, 21, 0)
s = 195: (0, 14, 22, 10, 24, 6, 11, 47, 4, 22, 10, 0)
s = 196: (0, 15, 50, 15, 15, 10, 11, 39, 5, 31, 14, 0)
s = 197: (0, 25, 21, 12, 16, 10, 19, 51, 4, 22, 9, 0)
s = 198: (0, 19, 42, 10, 12, 7, 19, 35, 5, 16, 19, 0)
s = 199: (0, 15, 28, 17, 23, 9, 19, 48, 3, 19, 13, 0)
s = 200: (0, 22, 39, 7, 24, 12, 11, 58, 6, 14, 26, 0)
------------------------------------------------------------------------
RESOURCE k = 2
s = 1: (0, 29, 79, 17, 43, 11, 17, 29, 27, 79, 29, 0)
s = 2: (0, 36, 127, 27, 65, 15, 20, 24, 40, 63, 24, 0)
s = 3: (0, 31, 140, 22, 79, 14, 25, 25, 33, 86, 49, 0)
s = 4: (0, 39, 134, 24, 82, 15, 21, 17, 46, 65, 35, 0)
s = 5: (0, 29, 111, 39, 105, 13, 30, 31, 40, 71, 34, 0)
s = 6: (0, 18, 112, 24, 73, 14, 30, 28, 27, 48, 36, 0)
s = 7: (0, 42, 112, 51, 46, 10, 23, 18, 38, 58, 21, 0)
s = 8: (0, 31, 101, 31, 145, 17, 18, 42, 20, 50, 70, 0)
s = 9: (0, 30, 111, 32, 70, 13, 18, 30, 30, 76, 48, 0)
s = 10: (0, 44, 145, 16, 70, 14, 17, 17, 20, 56, 27, 0)
s = 11: (0, 24, 128, 37, 69, 12, 20, 19, 28, 130, 27, 0)
s = 12: (0, 28, 152, 35, 87, 20, 20, 27, 32, 67, 36, 0)
s = 13: (0, 38, 106, 21, 55, 20, 17, 33, 20, 112, 23, 0)
s = 14: (0, 29, 114, 22, 68, 12, 15, 30, 36, 56, 21, 0)
s = 15: (0, 23, 104, 18, 62, 24, 19, 26, 47, 63, 25, 0)
s = 16: (0, 19, 121, 32, 60, 15, 27, 29, 24, 39, 43, 0)
s = 17: (0, 27, 208, 29, 89, 10, 22, 20, 18, 103, 27, 0)
s = 18: (0, 30, 61, 16, 88, 19, 29, 46, 42, 61, 27, 0)
s = 19: (0, 19, 57, 27, 98, 12, 15, 28, 45, 100, 50, 0)
s = 20: (0, 24, 182, 22, 82, 11, 21, 21, 22, 53, 35, 0)
s = 21: (0, 23, 86, 24, 97, 14, 32, 40, 32, 123, 34, 0)
s = 22: (0, 18, 76, 35, 98, 11, 24, 32, 29, 53, 31, 0)
s = 23: (0, 23, 136, 24, 66, 8, 19, 26, 29, 62, 34, 0)
s = 24: (0, 20, 88, 45, 119, 11, 16, 44, 26, 72, 40, 0)
s = 25: (0, 30, 116, 30, 53, 17, 21, 19, 42, 70, 37, 0)
s = 26: (0, 44, 132, 22, 79, 11, 16, 30, 28, 71, 45, 0)
s = 27: (0, 50, 101, 18, 79, 16, 18, 19, 35, 93, 32, 0)
s = 28: (0, 48, 145, 22, 93, 11, 19, 20, 22, 99, 43, 0)
s = 29: (0, 26, 151, 38, 53, 16, 21, 19, 29, 53, 21, 0)
s = 30: (0, 31, 131, 30, 71, 21, 20, 23, 29, 104, 27, 0)
s = 31: (0, 36, 108, 45, 82, 20, 29, 24, 41, 71, 38, 0)
s = 32: (0, 35, 88, 27, 77, 9, 22, 44, 37, 64, 32, 0)
s = 33: (0, 31, 180, 30, 69, 13, 25, 35, 45, 49, 50, 0)
s = 34: (0, 17, 76, 29, 66, 26, 17, 35, 27, 59, 28, 0)
s = 35: (0, 20, 96, 29, 75, 13, 20, 26, 40, 54, 41, 0)
s = 36: (0, 27, 130, 37, 52, 13, 14, 28, 43, 91, 31, 0)
s = 37: (0, 26, 87, 23, 79, 12, 21, 37, 36, 51, 34, 0)
s = 38: (0, 24, 103, 26, 113, 12, 21, 32, 25, 128, 27, 0)
s = 39: (0, 39, 127, 53, 85, 11, 26, 23, 18, 71, 60, 0)
s = 40: (0, 30, 97, 23, 90, 17, 26, 42, 18, 83, 20, 0)
s = 41: (0, 27, 71, 25, 90, 13, 23, 33, 29, 69, 28, 0)
s = 42: (0, 16, 108, 41, 97, 17, 23, 43, 26, 57, 36, 0)
s = 43: (0, 30, 141, 30, 108, 10, 28, 16, 29, 106, 26, 0)
s = 44: (0, 37, 91, 33, 74, 17, 21, 18, 24, 68, 25, 0)
s = 45: (0, 20, 121, 28, 61, 10, 17, 19, 36, 74, 21, 0)
s = 46: (0, 20, 77, 20, 99, 21, 24, 26, 37, 85, 26, 0)
s = 47: (0, 22, 90, 25, 75, 15, 19, 34, 25, 74, 48, 0)
s = 48: (0, 31, 193, 35, 56, 12, 31, 32, 26, 120, 32, 0)
s = 49: (0, 24, 114, 18, 51, 14, 17, 25, 38, 97, 45, 0)
s = 50: (0, 23, 139, 24, 61, 20, 20, 23, 35, 49, 25, 0)
s = 51: (0, 33, 87, 29, 91, 16, 38, 44, 23, 59, 27, 0)
s = 52: (0, 40, 67, 25, 66, 11, 22, 33, 39, 73, 36, 0)
s = 53: (0, 33, 71, 33, 68, 12, 28, 32, 29, 90, 50, 0)
s = 54: (0, 42, 99, 20, 73, 12, 18, 26, 35, 60, 32, 0)
s = 55: (0, 26, 104, 32, 101, 21, 34, 21, 35, 83, 18, 0)
s = 56: (0, 26, 75, 24, 80, 22, 17, 30, 42, 90, 32, 0)
s = 57: (0, 18, 82, 51, 66, 16, 29, 20, 25, 67, 29, 0)
s = 58: (0, 24, 142, 26, 130, 21, 26, 19, 28, 76, 29, 0)
s = 59: (0, 49, 87, 43, 86, 20, 26, 24, 23, 63, 25, 0)
s = 60: (0, 26, 149, 22, 51, 13, 22, 24, 25, 78, 24, 0)
s = 61: (0, 28, 96, 41, 57, 17, 12, 23, 21, 86, 52, 0)
s = 62: (0, 30, 88, 26, 53, 16, 19, 22, 42, 60, 30, 0)
s = 63: (0, 31, 128, 25, 166, 16, 14, 29, 39, 60, 31, 0)
s = 64: (0, 32, 105, 25, 72, 10, 27, 28, 44, 52, 46, 0)
s = 65: (0, 35, 129, 30, 100, 11, 25, 43, 33, 48, 24, 0)
s = 66: (0, 32, 98, 25, 75, 11, 15, 22, 30, 86, 35, 0)
s = 67: (0, 33, 120, 20, 79, 14, 21, 19, 27, 91, 18, 0)
s = 68: (0, 18, 121, 40, 104, 11, 25, 37, 21, 117, 55, 0)
s = 69: (0, 22, 100, 39, 114, 18, 29, 33, 17, 77, 40, 0)
s = 70: (0, 29, 123, 24, 123, 18, 29, 27, 25, 55, 35, 0)
s = 71: (0, 18, 108, 24, 68, 11, 14, 18, 19, 105, 49, 0)
s = 72: (0, 21, 100, 27, 50, 13, 26, 38, 32, 66, 44, 0)
s = 73: (0, 32, 106, 29, 61, 17, 27, 24, 36, 62, 65, 0)
s = 74: (0, 24, 83, 16, 53, 18, 20, 27, 28, 78, 46, 0)
s = 75: (0, 19, 131, 17, 51, 20, 22, 28, 19, 46, 36, 0)
s = 76: (0, 31, 61, 17, 56, 19, 14, 22, 32, 79, 26, 0)
s = 77: (0, 25, 133, 29, 94, 17, 13, 29, 24, 105, 22, 0)
s = 78: (0, 30, 138, 36, 75, 14, 15, 34, 34, 66, 28, 0)
s = 79: (0, 18, 94, 26, 75, 9, 25, 18, 42, 50, 27, 0)
s = 80: (0, 27, 98, 32, 85, 18, 26, 21, 40, 60, 33, 0)
s = 81: (0, 25, 95, 25, 146, 12, 20, 29, 33, 50, 30, 0)
s = 82: (0, 40, 130, 18, 73, 15, 27, 30, 28, 97, 36, 0)
s = 83: (0, 32, 142, 34, 98, 10, 32, 19, 22, 70, 33, 0)
s = 84: (0, 36, 148, 56, 64, 20, 18, 29, 36, 105, 23, 0)
s = 85: (0, 25, 85, 18, 70, 22, 24, 29, 45, 67, 27, 0)
s = 86: (0, 45, 70, 22, 82, 14, 24, 23, 38, 76, 32, 0)
s = 87: (0, 40, 93, 19, 75, 11, 17, 27, 25, 74, 48, 0)
s = 88: (0, 29, 107, 27, 52, 17, 25, 26, 26, 49, 24, 0)
s = 89: (0, 33, 70, 27, 50, 16, 16, 25, 40, 63, 27, 0)
s = 90: (0, 35, 83, 27, 105, 16, 23, 22, 42, 49, 21, 0)
s = 91: (0, 20, 90, 29, 91, 19, 29, 38, 33, 55, 22, 0)
s = 92: (0, 23, 73, 18, 116, 16, 21, 27, 31, 76, 24, 0)
s = 93: (0, 21, 55, 36, 55, 13, 16, 27, 27, 90, 46, 0)
s = 94: (0, 19, 67, 38, 44, 16, 16, 21, 18, 66, 35, 0)
s = 95: (0, 42, 82, 22, 121, 13, 26, 36, 27, 56, 38, 0)
s = 96: (0, 42, 124, 18, 120, 14, 19, 42, 18, 95, 31, 0)
s = 97: (0, 25, 87, 26, 121, 13, 27, 41, 26, 99, 39, 0)
s = 98: (0, 30, 111, 36, 68, 9, 28, 22, 29, 97, 37, 0)
s = 99: (0, 33, 54, 20, 46, 12, 19, 19, 30, 92, 26, 0)
s = 100: (0, 41, 63, 22, 98, 18, 37, 19, 45, 84, 31, 0)
s = 101: (0, 27, 99, 22, 52, 11, 22, 32, 18, 78, 24, 0)
s = 102: (0, 30, 91, 18, 66, 18, 18, 25, 37, 53, 36, 0)
s = 103: (0, 42, 142, 26, 64, 12, 20, 33, 29, 78, 59, 0)
s = 104: (0, 26, 141, 38, 63, 16, 18, 22, 39, 65, 56, 0)
s = 105: (0, 44, 134, 32, 78, 11, 17, 16, 47, 69, 32, 0)
s = 106: (0, 34, 69, 23, 133, 12, 14, 34, 28, 62, 25, 0)
s = 107: (0, 31, 111, 16, 63, 15, 17, 23, 18, 51, 59, 0)
s = 108: (0, 36, 59, 32, 65, 9, 12, 28, 36, 49, 58, 0)
s = 109: (0, 29, 139, 28, 71, 12, 34, 32, 43, 65, 27, 0)
s = 110: (0, 22, 101, 26, 106, 14, 20, 31, 38, 60, 37, 0)
s = 111: (0, 17, 153, 38, 97, 18, 25, 24, 24, 42, 22, 0)
s = 112: (0, 25, 85, 30, 64, 15, 14, 18, 28, 45, 27, 0)
s = 113: (0, 40, 78, 32, 102, 13, 21, 39, 20, 60, 39, 0)
s = 114: (0, 22, 54, 34, 85, 23, 17, 46, 35, 80, 26, 0)
s = 115: (0, 20, 65, 46, 98, 8, 24, 18, 39, 50, 18, 0)
s = 116: (0, 20, 97, 34, 93, 8, 15, 22, 41, 103, 36, 0)
s = 117: (0, 23, 101, 35, 42, 12, 13, 18, 18, 79, 34, 0)
s = 118: (0, 38, 127, 30, 64, 17, 12, 22, 46, 110, 27, 0)
s = 119: (0, 36, 55, 25, 75, 19, 19, 19, 33, 89, 36, 0)
s = 120: (0, 33, 71, 16, 87, 11, 15, 26, 31, 92, 20, 0)
s = 121: (0, 33, 83, 17, 92, 14, 12, 41, 35, 104, 36, 0)
s = 122: (0, 55, 84, 31, 90, 19, 17, 20, 22, 78, 40, 0)
s = 123: (0, 30, 61, 37, 89, 21, 28, 36, 17, 59, 32, 0)
s = 124: (0, 17, 154, 28, 45, 14, 18, 22, 22, 50, 37, 0)
s = 125: (0, 38, 89, 40, 108, 21, 18, 22, 28, 80, 27, 0)
s = 126: (0, 35, 102, 19, 106, 21, 16, 19, 50, 91, 50, 0)
s = 127: (0, 18, 107, 29, 116, 16, 24, 19, 29, 65, 65, 0)
s = 128: (0, 41, 81, 30, 69, 17, 27, 29, 31, 66, 45, 0)
s = 129: (0, 42, 174, 45, 56, 9, 17, 22, 31, 64, 32, 0)
s = 130: (0, 37, 136, 28, 98, 11, 24, 29, 23, 74, 38, 0)
s = 131: (0, 36, 200, 19, 65, 25, 22, 18, 37, 101, 35, 0)
s = 132: (0, 30, 81, 32, 51, 14, 23, 44, 27, 88, 22, 0)
s = 133: (0, 38, 104, 29, 89, 17, 23, 38, 19, 91, 33, 0)
s = 134: (0, 22, 129, 29, 95, 13, 17, 51, 18, 49, 40, 0)
s = 135: (0, 17, 131, 39, 70, 11, 21, 23, 36, 72, 38, 0)
s = 136: (0, 22, 98, 22, 75, 10, 26, 20, 41, 49, 25, 0)
s = 137: (0, 34, 119, 16, 78, 10, 19, 40, 21, 67, 51, 0)
s = 138: (0, 45, 60, 44, 110, 13, 19, 28, 29, 108, 31, 0)
s = 139: (0, 28, 97, 31, 51, 12, 11, 30, 32, 56, 32, 0)
s = 140: (0, 33, 102, 21, 44, 12, 16, 40, 39, 66, 37, 0)
s = 141: (0, 38, 109, 33, 81, 10, 14, 36, 24, 53, 29, 0)
s = 142: (0, 19, 62, 22, 89, 14, 14, 23, 35, 61, 41, 0)
s = 143: (0, 40, 99, 27, 53, 16, 11, 55, 25, 74, 39, 0)
s = 144: (0, 28, 56, 37, 83, 18, 14, 37, 19, 52, 27, 0)
s = 145: (0, 29, 117, 25, 123, 14, 19, 37, 27, 72, 36, 0)
s = 146: (0, 20, 86, 19, 127, 17, 18, 20, 43, 69, 28, 0)
s = 147: (0, 48, 106, 29, 74, 24, 34, 22, 27, 69, 26, 0)
s = 148: (0, 19, 98, 48, 58, 20, 23, 42, 44, 64, 34, 0)
s = 149: (0, 30, 110, 21, 60, 13, 26, 24, 30, 96, 34, 0)
s = 150: (0, 51, 105, 38, 84, 14, 14, 37, 48, 55, 28, 0)
s = 151: (0, 37, 186, 27, 58, 9, 23, 30, 23, 81, 53, 0)
s = 152: (0, 32, 101, 18, 127, 18, 32, 39, 38, 84, 29, 0)
s = 153: (0, 20, 64, 36, 96, 11, 16, 24, 32, 116, 37, 0)
s = 154: (0, 28, 89, 19, 59, 9, 25, 30, 30, 42, 42, 0)
s = 155: (0, 25, 64, 37, 139, 20, 27, 31, 26, 63, 29, 0)
s = 156: (0, 27, 128, 16, 71, 13, 23, 19, 39, 84, 29, 0)
s = 157: (0, 22, 57, 29, 52, 8, 15, 20, 35, 89, 40, 0)
s = 158: (0, 38, 53, 26, 150, 15, 28, 31, 27, 52, 37, 0)
s = 159: (0, 18, 55, 31, 79, 14, 30, 21, 30, 98, 39, 0)
s = 160: (0, 32, 71, 17, 62, 15, 28, 44, 34, 79, 21, 0)
s = 161: (0, 33, 80, 17, 116, 9, 18, 28, 20, 60, 29, 0)
s = 162: (0, 34, 163, 28, 95, 13, 13, 34, 22, 68, 37, 0)
s = 163: (0, 33, 76, 37, 64, 12, 19, 40, 25, 55, 26, 0)
s = 164: (0, 27, 110, 26, 85, 10, 18, 33, 34, 109, 46, 0)
s = 165: (0, 24, 84, 30, 90, 14, 18, 25, 31, 48, 31, 0)
s = 166: (0, 21, 117, 27, 59, 24, 16, 23, 38, 101, 30, 0)
s = 167: (0, 37, 136, 27, 89, 12, 15, 23, 26, 67, 44, 0)
s = 168: (0, 39, 151, 36, 68, 14, 25, 33, 50, 53, 54, 0)
s = 169: (0, 22, 80, 23, 104, 12, 29, 28, 57, 112, 35, 0)
s = 170: (0, 38, 127, 34, 131, 9, 30, 20, 19, 105, 58, 0)
s = 171: (0, 38, 73, 23, 59, 24, 28, 29, 27, 130, 32, 0)
s = 172: (0, 23, 147, 51, 83, 12, 14, 20, 55, 82, 27, 0)
s = 173: (0, 21, 115, 21, 84, 9, 18, 29, 35, 69, 59, 0)
s = 174: (0, 33, 148, 27, 55, 15, 22, 21, 40, 58, 37, 0)
s = 175: (0, 26, 71, 35, 93, 10, 19, 37, 37, 53, 54, 0)
s = 176: (0, 40, 131, 32, 82, 16, 19, 30, 28, 79, 37, 0)
s = 177: (0, 28, 111, 23, 76, 15, 17, 24, 23, 67, 33, 0)
s = 178: (0, 39, 169, 28, 113, 22, 21, 23, 41, 107, 28, 0)
s = 179: (0, 33, 102, 28, 101, 14, 16, 23, 33, 48, 33, 0)
s = 180: (0, 28, 120, 24, 128, 22, 14, 31, 38, 79, 27, 0)
s = 181: (0, 19, 58, 27, 46, 27, 12, 17, 36, 106, 37, 0)
s = 182: (0, 47, 82, 43, 55, 12, 25, 37, 24, 70, 43, 0)
s = 183: (0, 22, 63, 25, 113, 8, 23, 23, 39, 83, 23, 0)
s = 184: (0, 37, 136, 25, 94, 15, 33, 35, 26, 74, 44, 0)
s = 185: (0, 30, 70, 37, 54, 9, 22, 21, 22, 90, 39, 0)
s = 186: (0, 23, 195, 18, 147, 12, 22, 20, 22, 73, 31, 0)
s = 187: (0, 34, 53, 17, 93, 20, 16, 25, 35, 72, 28, 0)
s = 188: (0, 38, 104, 29, 92, 14, 21, 22, 25, 92, 31, 0)
s = 189: (0, 39, 71, 31, 60, 17, 17, 40, 28, 50, 22, 0)
s = 190: (0, 27, 128, 23, 72, 21, 23, 20, 28, 64, 41, 0)
s = 191: (0, 27, 109, 31, 60, 11, 23, 20, 41, 124, 35, 0)
s = 192: (0, 26, 71, 21, 78, 19, 16, 21, 32, 60, 22, 0)
s = 193: (0, 26, 60, 28, 90, 22, 31, 21, 21, 78, 32, 0)
s = 194: (0, 21, 97, 49, 52, 14, 11, 19, 39, 80, 51, 0)
s = 195: (0, 20, 61, 22, 95, 10, 17, 37, 28, 82, 25, 0)
s = 196: (0, 21, 141, 34, 59, 17, 18, 30, 34, 115, 34, 0)
s = 197: (0, 35, 58, 27, 64, 17, 31, 40, 30, 81, 21, 0)
s = 198: (0, 27, 118, 22, 46, 12, 31, 27, 34, 59, 45, 0)
s = 199: (0, 21, 77, 40, 92, 16, 31, 38, 20, 71, 31, 0)
s = 200: (0, 32, 110, 16, 96, 21, 17, 45, 43, 50, 62, 0)
************************************************************************
ES/LS-VALUES:
jobnr.   ES(i)    LS(i)
------------------------------------------------------------------------
  0        0        0
  1        0       50
  2        0       39
  3        0       48
  4        4       58
  5       12       62
  6       12       52
  7       15       56
  8       14       69
  9       22       64
 10       12       68
 11       30       73
************************************************************************
BIG-M-VALUES:
M1 = 49, M2 = 282
************************************************************************
